Second Year - 2020-2021/First Semester/Algorithm Analysis/Homework 2/sat_in/bonus/33.wcnf
p wcnf 13 43 361
361 1 3 0
361 1 6 0
361 1 9 0
361 2 5 0
361 2 7 0
361 2 10 0
361 3 4 0
361 3 5 0
361 3 8 0
361 3 12 0
361 4 6 0
361 4 11 0
361 4 13 0
361 5 6 0
361 5 8 0
361 5 11 0
361 6 7 0
361 6 8 0
361 6 10 0
361 6 12 0
361 7 8 0
361 7 10 0
361 7 11 0
361 7 12 0
361 8 9 0
361 8 11 0
361 9 10 0
361 10 13 0
361 11 13 0
361 12 13 0
27 -1 0
27 -2 0
26 -3 0
27 -4 0
27 -5 0
26 -6 0
26 -7 0
28 -8 0
29 -9 0
29 -10 0
29 -11 0
29 -12 0
30 -13 0
