Second Year/First Semester/Algorithm Analysis/Homework 2/sat_in/task3/33.cnf
p cnf 65 1215
1 2 3 4 5 6 7 8 9 10 11 12 13 0
14 15 16 17 18 19 20 21 22 23 24 25 26 0
27 28 29 30 31 32 33 34 35 36 37 38 39 0
40 41 42 43 44 45 46 47 48 49 50 51 52 0
53 54 55 56 57 58 59 60 61 62 63 64 65 0
-1 -14 0
-2 -15 0
-3 -16 0
-4 -17 0
-5 -18 0
-6 -19 0
-7 -20 0
-8 -21 0
-9 -22 0
-10 -23 0
-11 -24 0
-12 -25 0
-13 -26 0
-1 -27 0
-2 -28 0
-3 -29 0
-4 -30 0
-5 -31 0
-6 -32 0
-7 -33 0
-8 -34 0
-9 -35 0
-10 -36 0
-11 -37 0
-12 -38 0
-13 -39 0
-1 -40 0
-2 -41 0
-3 -42 0
-4 -43 0
-5 -44 0
-6 -45 0
-7 -46 0
-8 -47 0
-9 -48 0
-10 -49 0
-11 -50 0
-12 -51 0
-13 -52 0
-1 -53 0
-2 -54 0
-3 -55 0
-4 -56 0
-5 -57 0
-6 -58 0
-7 -59 0
-8 -60 0
-9 -61 0
-10 -62 0
-11 -63 0
-12 -64 0
-13 -65 0
-14 -27 0
-15 -28 0
-16 -29 0
-17 -30 0
-18 -31 0
-19 -32 0
-20 -33 0
-21 -34 0
-22 -35 0
-23 -36 0
-24 -37 0
-25 -38 0
-26 -39 0
-14 -40 0
-15 -41 0
-16 -42 0
-17 -43 0
-18 -44 0
-19 -45 0
-20 -46 0
-21 -47 0
-22 -48 0
-23 -49 0
-24 -50 0
-25 -51 0
-26 -52 0
-14 -53 0
-15 -54 0
-16 -55 0
-17 -56 0
-18 -57 0
-19 -58 0
-20 -59 0
-21 -60 0
-22 -61 0
-23 -62 0
-24 -63 0
-25 -64 0
-26 -65 0
-27 -40 0
-28 -41 0
-29 -42 0
-30 -43 0
-31 -44 0
-32 -45 0
-33 -46 0
-34 -47 0
-35 -48 0
-36 -49 0
-37 -50 0
-38 -51 0
-39 -52 0
-27 -53 0
-28 -54 0
-29 -55 0
-30 -56 0
-31 -57 0
-32 -58 0
-33 -59 0
-34 -60 0
-35 -61 0
-36 -62 0
-37 -63 0
-38 -64 0
-39 -65 0
-40 -53 0
-41 -54 0
-42 -55 0
-43 -56 0
-44 -57 0
-45 -58 0
-46 -59 0
-47 -60 0
-48 -61 0
-49 -62 0
-50 -63 0
-51 -64 0
-52 -65 0
-1 -16 0
-1 -19 0
-1 -22 0
-2 -14 0
-2 -18 0
-2 -20 0
-2 -23 0
-3 -14 0
-3 -15 0
-3 -17 0
-3 -18 0
-3 -21 0
-3 -25 0
-4 -14 0
-4 -15 0
-4 -16 0
-4 -19 0
-4 -24 0
-4 -26 0
-5 -14 0
-5 -15 0
-5 -16 0
-5 -17 0
-5 -19 0
-5 -21 0
-5 -24 0
-6 -14 0
-6 -15 0
-6 -16 0
-6 -17 0
-6 -18 0
-6 -20 0
-6 -21 0
-6 -23 0
-6 -25 0
-7 -14 0
-7 -15 0
-7 -16 0
-7 -17 0
-7 -18 0
-7 -19 0
-7 -21 0
-7 -23 0
-7 -24 0
-7 -25 0
-8 -14 0
-8 -15 0
-8 -16 0
-8 -17 0
-8 -18 0
-8 -19 0
-8 -20 0
-8 -22 0
-8 -24 0
-9 -14 0
-9 -15 0
-9 -16 0
-9 -17 0
-9 -18 0
-9 -19 0
-9 -20 0
-9 -21 0
-9 -23 0
-10 -14 0
-10 -15 0
-10 -16 0
-10 -17 0
-10 -18 0
-10 -19 0
-10 -20 0
-10 -21 0
-10 -22 0
-10 -26 0
-11 -14 0
-11 -15 0
-11 -16 0
-11 -17 0
-11 -18 0
-11 -19 0
-11 -20 0
-11 -21 0
-11 -22 0
-11 -23 0
-11 -26 0
-12 -14 0
-12 -15 0
-12 -16 0
-12 -17 0
-12 -18 0
-12 -19 0
-12 -20 0
-12 -21 0
-12 -22 0
-12 -23 0
-12 -24 0
-12 -26 0
-13 -14 0
-13 -15 0
-13 -16 0
-13 -17 0
-13 -18 0
-13 -19 0
-13 -20 0
-13 -21 0
-13 -22 0
-13 -23 0
-13 -24 0
-13 -25 0
-1 -29 0
-1 -32 0
-1 -35 0
-2 -27 0
-2 -31 0
-2 -33 0
-2 -36 0
-3 -27 0
-3 -28 0
-3 -30 0
-3 -31 0
-3 -34 0
-3 -38 0
-4 -27 0
-4 -28 0
-4 -29 0
-4 -32 0
-4 -37 0
-4 -39 0
-5 -27 0
-5 -28 0
-5 -29 0
-5 -30 0
-5 -32 0
-5 -34 0
-5 -37 0
-6 -27 0
-6 -28 0
-6 -29 0
-6 -30 0
-6 -31 0
-6 -33 0
-6 -34 0
-6 -36 0
-6 -38 0
-7 -27 0
-7 -28 0
-7 -29 0
-7 -30 0
-7 -31 0
-7 -32 0
-7 -34 0
-7 -36 0
-7 -37 0
-7 -38 0
-8 -27 0
-8 -28 0
-8 -29 0
-8 -30 0
-8 -31 0
-8 -32 0
-8 -33 0
-8 -35 0
-8 -37 0
-9 -27 0
-9 -28 0
-9 -29 0
-9 -30 0
-9 -31 0
-9 -32 0
-9 -33 0
-9 -34 0
-9 -36 0
-10 -27 0
-10 -28 0
-10 -29 0
-10 -30 0
-10 -31 0
-10 -32 0
-10 -33 0
-10 -34 0
-10 -35 0
-10 -39 0
-11 -27 0
-11 -28 0
-11 -29 0
-11 -30 0
-11 -31 0
-11 -32 0
-11 -33 0
-11 -34 0
-11 -35 0
-11 -36 0
-11 -39 0
-12 -27 0
-12 -28 0
-12 -29 0
-12 -30 0
-12 -31 0
-12 -32 0
-12 -33 0
-12 -34 0
-12 -35 0
-12 -36 0
-12 -37 0
-12 -39 0
-13 -27 0
-13 -28 0
-13 -29 0
-13 -30 0
-13 -31 0
-13 -32 0
-13 -33 0
-13 -34 0
-13 -35 0
-13 -36 0
-13 -37 0
-13 -38 0
-1 -42 0
-1 -45 0
-1 -48 0
-2 -40 0
-2 -44 0
-2 -46 0
-2 -49 0
-3 -40 0
-3 -41 0
-3 -43 0
-3 -44 0
-3 -47 0
-3 -51 0
-4 -40 0
-4 -41 0
-4 -42 0
-4 -45 0
-4 -50 0
-4 -52 0
-5 -40 0
-5 -41 0
-5 -42 0
-5 -43 0
-5 -45 0
-5 -47 0
-5 -50 0
-6 -40 0
-6 -41 0
-6 -42 0
-6 -43 0
-6 -44 0
-6 -46 0
-6 -47 0
-6 -49 0
-6 -51 0
-7 -40 0
-7 -41 0
-7 -42 0
-7 -43 0
-7 -44 0
-7 -45 0
-7 -47 0
-7 -49 0
-7 -50 0
-7 -51 0
-8 -40 0
-8 -41 0
-8 -42 0
-8 -43 0
-8 -44 0
-8 -45 0
-8 -46 0
-8 -48 0
-8 -50 0
-9 -40 0
-9 -41 0
-9 -42 0
-9 -43 0
-9 -44 0
-9 -45 0
-9 -46 0
-9 -47 0
-9 -49 0
-10 -40 0
-10 -41 0
-10 -42 0
-10 -43 0
-10 -44 0
-10 -45 0
-10 -46 0
-10 -47 0
-10 -48 0
-10 -52 0
-11 -40 0
-11 -41 0
-11 -42 0
-11 -43 0
-11 -44 0
-11 -45 0
-11 -46 0
-11 -47 0
-11 -48 0
-11 -49 0
-11 -52 0
-12 -40 0
-12 -41 0
-12 -42 0
-12 -43 0
-12 -44 0
-12 -45 0
-12 -46 0
-12 -47 0
-12 -48 0
-12 -49 0
-12 -50 0
-12 -52 0
-13 -40 0
-13 -41 0
-13 -42 0
-13 -43 0
-13 -44 0
-13 -45 0
-13 -46 0
-13 -47 0
-13 -48 0
-13 -49 0
-13 -50 0
-13 -51 0
-1 -55 0
-1 -58 0
-1 -61 0
-2 -53 0
-2 -57 0
-2 -59 0
-2 -62 0
-3 -53 0
-3 -54 0
-3 -56 0
-3 -57 0
-3 -60 0
-3 -64 0
-4 -53 0
-4 -54 0
-4 -55 0
-4 -58 0
-4 -63 0
-4 -65 0
-5 -53 0
-5 -54 0
-5 -55 0
-5 -56 0
-5 -58 0
-5 -60 0
-5 -63 0
-6 -53 0
-6 -54 0
-6 -55 0
-6 -56 0
-6 -57 0
-6 -59 0
-6 -60 0
-6 -62 0
-6 -64 0
-7 -53 0
-7 -54 0
-7 -55 0
-7 -56 0
-7 -57 0
-7 -58 0
-7 -60 0
-7 -62 0
-7 -63 0
-7 -64 0
-8 -53 0
-8 -54 0
-8 -55 0
-8 -56 0
-8 -57 0
-8 -58 0
-8 -59 0
-8 -61 0
-8 -63 0
-9 -53 0
-9 -54 0
-9 -55 0
-9 -56 0
-9 -57 0
-9 -58 0
-9 -59 0
-9 -60 0
-9 -62 0
-10 -53 0
-10 -54 0
-10 -55 0
-10 -56 0
-10 -57 0
-10 -58 0
-10 -59 0
-10 -60 0
-10 -61 0
-10 -65 0
-11 -53 0
-11 -54 0
-11 -55 0
-11 -56 0
-11 -57 0
-11 -58 0
-11 -59 0
-11 -60 0
-11 -61 0
-11 -62 0
-11 -65 0
-12 -53 0
-12 -54 0
-12 -55 0
-12 -56 0
-12 -57 0
-12 -58 0
-12 -59 0
-12 -60 0
-12 -61 0
-12 -62 0
-12 -63 0
-12 -65 0
-13 -53 0
-13 -54 0
-13 -55 0
-13 -56 0
-13 -57 0
-13 -58 0
-13 -59 0
-13 -60 0
-13 -61 0
-13 -62 0
-13 -63 0
-13 -64 0
-14 -29 0
-14 -32 0
-14 -35 0
-15 -27 0
-15 -31 0
-15 -33 0
-15 -36 0
-16 -27 0
-16 -28 0
-16 -30 0
-16 -31 0
-16 -34 0
-16 -38 0
-17 -27 0
-17 -28 0
-17 -29 0
-17 -32 0
-17 -37 0
-17 -39 0
-18 -27 0
-18 -28 0
-18 -29 0
-18 -30 0
-18 -32 0
-18 -34 0
-18 -37 0
-19 -27 0
-19 -28 0
-19 -29 0
-19 -30 0
-19 -31 0
-19 -33 0
-19 -34 0
-19 -36 0
-19 -38 0
-20 -27 0
-20 -28 0
-20 -29 0
-20 -30 0
-20 -31 0
-20 -32 0
-20 -34 0
-20 -36 0
-20 -37 0
-20 -38 0
-21 -27 0
-21 -28 0
-21 -29 0
-21 -30 0
-21 -31 0
-21 -32 0
-21 -33 0
-21 -35 0
-21 -37 0
-22 -27 0
-22 -28 0
-22 -29 0
-22 -30 0
-22 -31 0
-22 -32 0
-22 -33 0
-22 -34 0
-22 -36 0
-23 -27 0
-23 -28 0
-23 -29 0
-23 -30 0
-23 -31 0
-23 -32 0
-23 -33 0
-23 -34 0
-23 -35 0
-23 -39 0
-24 -27 0
-24 -28 0
-24 -29 0
-24 -30 0
-24 -31 0
-24 -32 0
-24 -33 0
-24 -34 0
-24 -35 0
-24 -36 0
-24 -39 0
-25 -27 0
-25 -28 0
-25 -29 0
-25 -30 0
-25 -31 0
-25 -32 0
-25 -33 0
-25 -34 0
-25 -35 0
-25 -36 0
-25 -37 0
-25 -39 0
-26 -27 0
-26 -28 0
-26 -29 0
-26 -30 0
-26 -31 0
-26 -32 0
-26 -33 0
-26 -34 0
-26 -35 0
-26 -36 0
-26 -37 0
-26 -38 0
-14 -42 0
-14 -45 0
-14 -48 0
-15 -40 0
-15 -44 0
-15 -46 0
-15 -49 0
-16 -40 0
-16 -41 0
-16 -43 0
-16 -44 0
-16 -47 0
-16 -51 0
-17 -40 0
-17 -41 0
-17 -42 0
-17 -45 0
-17 -50 0
-17 -52 0
-18 -40 0
-18 -41 0
-18 -42 0
-18 -43 0
-18 -45 0
-18 -47 0
-18 -50 0
-19 -40 0
-19 -41 0
-19 -42 0
-19 -43 0
-19 -44 0
-19 -46 0
-19 -47 0
-19 -49 0
-19 -51 0
-20 -40 0
-20 -41 0
-20 -42 0
-20 -43 0
-20 -44 0
-20 -45 0
-20 -47 0
-20 -49 0
-20 -50 0
-20 -51 0
-21 -40 0
-21 -41 0
-21 -42 0
-21 -43 0
-21 -44 0
-21 -45 0
-21 -46 0
-21 -48 0
-21 -50 0
-22 -40 0
-22 -41 0
-22 -42 0
-22 -43 0
-22 -44 0
-22 -45 0
-22 -46 0
-22 -47 0
-22 -49 0
-23 -40 0
-23 -41 0
-23 -42 0
-23 -43 0
-23 -44 0
-23 -45 0
-23 -46 0
-23 -47 0
-23 -48 0
-23 -52 0
-24 -40 0
-24 -41 0
-24 -42 0
-24 -43 0
-24 -44 0
-24 -45 0
-24 -46 0
-24 -47 0
-24 -48 0
-24 -49 0
-24 -52 0
-25 -40 0
-25 -41 0
-25 -42 0
-25 -43 0
-25 -44 0
-25 -45 0
-25 -46 0
-25 -47 0
-25 -48 0
-25 -49 0
-25 -50 0
-25 -52 0
-26 -40 0
-26 -41 0
-26 -42 0
-26 -43 0
-26 -44 0
-26 -45 0
-26 -46 0
-26 -47 0
-26 -48 0
-26 -49 0
-26 -50 0
-26 -51 0
-14 -55 0
-14 -58 0
-14 -61 0
-15 -53 0
-15 -57 0
-15 -59 0
-15 -62 0
-16 -53 0
-16 -54 0
-16 -56 0
-16 -57 0
-16 -60 0
-16 -64 0
-17 -53 0
-17 -54 0
-17 -55 0
-17 -58 0
-17 -63 0
-17 -65 0
-18 -53 0
-18 -54 0
-18 -55 0
-18 -56 0
-18 -58 0
-18 -60 0
-18 -63 0
-19 -53 0
-19 -54 0
-19 -55 0
-19 -56 0
-19 -57 0
-19 -59 0
-19 -60 0
-19 -62 0
-19 -64 0
-20 -53 0
-20 -54 0
-20 -55 0
-20 -56 0
-20 -57 0
-20 -58 0
-20 -60 0
-20 -62 0
-20 -63 0
-20 -64 0
-21 -53 0
-21 -54 0
-21 -55 0
-21 -56 0
-21 -57 0
-21 -58 0
-21 -59 0
-21 -61 0
-21 -63 0
-22 -53 0
-22 -54 0
-22 -55 0
-22 -56 0
-22 -57 0
-22 -58 0
-22 -59 0
-22 -60 0
-22 -62 0
-23 -53 0
-23 -54 0
-23 -55 0
-23 -56 0
-23 -57 0
-23 -58 0
-23 -59 0
-23 -60 0
-23 -61 0
-23 -65 0
-24 -53 0
-24 -54 0
-24 -55 0
-24 -56 0
-24 -57 0
-24 -58 0
-24 -59 0
-24 -60 0
-24 -61 0
-24 -62 0
-24 -65 0
-25 -53 0
-25 -54 0
-25 -55 0
-25 -56 0
-25 -57 0
-25 -58 0
-25 -59 0
-25 -60 0
-25 -61 0
-25 -62 0
-25 -63 0
-25 -65 0
-26 -53 0
-26 -54 0
-26 -55 0
-26 -56 0
-26 -57 0
-26 -58 0
-26 -59 0
-26 -60 0
-26 -61 0
-26 -62 0
-26 -63 0
-26 -64 0
-27 -42 0
-27 -45 0
-27 -48 0
-28 -40 0
-28 -44 0
-28 -46 0
-28 -49 0
-29 -40 0
-29 -41 0
-29 -43 0
-29 -44 0
-29 -47 0
-29 -51 0
-30 -40 0
-30 -41 0
-30 -42 0
-30 -45 0
-30 -50 0
-30 -52 0
-31 -40 0
-31 -41 0
-31 -42 0
-31 -43 0
-31 -45 0
-31 -47 0
-31 -50 0
-32 -40 0
-32 -41 0
-32 -42 0
-32 -43 0
-32 -44 0
-32 -46 0
-32 -47 0
-32 -49 0
-32 -51 0
-33 -40 0
-33 -41 0
-33 -42 0
-33 -43 0
-33 -44 0
-33 -45 0
-33 -47 0
-33 -49 0
-33 -50 0
-33 -51 0
-34 -40 0
-34 -41 0
-34 -42 0
-34 -43 0
-34 -44 0
-34 -45 0
-34 -46 0
-34 -48 0
-34 -50 0
-35 -40 0
-35 -41 0
-35 -42 0
-35 -43 0
-35 -44 0
-35 -45 0
-35 -46 0
-35 -47 0
-35 -49 0
-36 -40 0
-36 -41 0
-36 -42 0
-36 -43 0
-36 -44 0
-36 -45 0
-36 -46 0
-36 -47 0
-36 -48 0
-36 -52 0
-37 -40 0
-37 -41 0
-37 -42 0
-37 -43 0
-37 -44 0
-37 -45 0
-37 -46 0
-37 -47 0
-37 -48 0
-37 -49 0
-37 -52 0
-38 -40 0
-38 -41 0
-38 -42 0
-38 -43 0
-38 -44 0
-38 -45 0
-38 -46 0
-38 -47 0
-38 -48 0
-38 -49 0
-38 -50 0
-38 -52 0
-39 -40 0
-39 -41 0
-39 -42 0
-39 -43 0
-39 -44 0
-39 -45 0
-39 -46 0
-39 -47 0
-39 -48 0
-39 -49 0
-39 -50 0
-39 -51 0
-27 -55 0
-27 -58 0
-27 -61 0
-28 -53 0
-28 -57 0
-28 -59 0
-28 -62 0
-29 -53 0
-29 -54 0
-29 -56 0
-29 -57 0
-29 -60 0
-29 -64 0
-30 -53 0
-30 -54 0
-30 -55 0
-30 -58 0
-30 -63 0
-30 -65 0
-31 -53 0
-31 -54 0
-31 -55 0
-31 -56 0
-31 -58 0
-31 -60 0
-31 -63 0
-32 -53 0
-32 -54 0
-32 -55 0
-32 -56 0
-32 -57 0
-32 -59 0
-32 -60 0
-32 -62 0
-32 -64 0
-33 -53 0
-33 -54 0
-33 -55 0
-33 -56 0
-33 -57 0
-33 -58 0
-33 -60 0
-33 -62 0
-33 -63 0
-33 -64 0
-34 -53 0
-34 -54 0
-34 -55 0
-34 -56 0
-34 -57 0
-34 -58 0
-34 -59 0
-34 -61 0
-34 -63 0
-35 -53 0
-35 -54 0
-35 -55 0
-35 -56 0
-35 -57 0
-35 -58 0
-35 -59 0
-35 -60 0
-35 -62 0
-36 -53 0
-36 -54 0
-36 -55 0
-36 -56 0
-36 -57 0
-36 -58 0
-36 -59 0
-36 -60 0
-36 -61 0
-36 -65 0
-37 -53 0
-37 -54 0
-37 -55 0
-37 -56 0
-37 -57 0
-37 -58 0
-37 -59 0
-37 -60 0
-37 -61 0
-37 -62 0
-37 -65 0
-38 -53 0
-38 -54 0
-38 -55 0
-38 -56 0
-38 -57 0
-38 -58 0
-38 -59 0
-38 -60 0
-38 -61 0
-38 -62 0
-38 -63 0
-38 -65 0
-39 -53 0
-39 -54 0
-39 -55 0
-39 -56 0
-39 -57 0
-39 -58 0
-39 -59 0
-39 -60 0
-39 -61 0
-39 -62 0
-39 -63 0
-39 -64 0
-40 -55 0
-40 -58 0
-40 -61 0
-41 -53 0
-41 -57 0
-41 -59 0
-41 -62 0
-42 -53 0
-42 -54 0
-42 -56 0
-42 -57 0
-42 -60 0
-42 -64 0
-43 -53 0
-43 -54 0
-43 -55 0
-43 -58 0
-43 -63 0
-43 -65 0
-44 -53 0
-44 -54 0
-44 -55 0
-44 -56 0
-44 -58 0
-44 -60 0
-44 -63 0
-45 -53 0
-45 -54 0
-45 -55 0
-45 -56 0
-45 -57 0
-45 -59 0
-45 -60 0
-45 -62 0
-45 -64 0
-46 -53 0
-46 -54 0
-46 -55 0
-46 -56 0
-46 -57 0
-46 -58 0
-46 -60 0
-46 -62 0
-46 -63 0
-46 -64 0
-47 -53 0
-47 -54 0
-47 -55 0
-47 -56 0
-47 -57 0
-47 -58 0
-47 -59 0
-47 -61 0
-47 -63 0
-48 -53 0
-48 -54 0
-48 -55 0
-48 -56 0
-48 -57 0
-48 -58 0
-48 -59 0
-48 -60 0
-48 -62 0
-49 -53 0
-49 -54 0
-49 -55 0
-49 -56 0
-49 -57 0
-49 -58 0
-49 -59 0
-49 -60 0
-49 -61 0
-49 -65 0
-50 -53 0
-50 -54 0
-50 -55 0
-50 -56 0
-50 -57 0
-50 -58 0
-50 -59 0
-50 -60 0
-50 -61 0
-50 -62 0
-50 -65 0
-51 -53 0
-51 -54 0
-51 -55 0
-51 -56 0
-51 -57 0
-51 -58 0
-51 -59 0
-51 -60 0
-51 -61 0
-51 -62 0
-51 -63 0
-51 -65 0
-52 -53 0
-52 -54 0
-52 -55 0
-52 -56 0
-52 -57 0
-52 -58 0
-52 -59 0
-52 -60 0
-52 -61 0
-52 -62 0
-52 -63 0
-52 -64 0
